NAME          
ROWS
 N  OBJ
 L  c1
 L  c2
 L  c3
 L  c4
COLUMNS
    MARKER    'MARKER'                 'INTORG'
    x[1]      c1        958
    x[1]      c2        620
    x[1]      c3        761
    x[1]      c4        759
    x[1]      OBJ       -926
    x[2]      c1        518
    x[2]      c2        78
    x[2]      c3        302
    x[2]      c4        176
    x[2]      OBJ       -782
    x[3]      c1        764
    x[3]      c2        116
    x[3]      c3        340
    x[3]      c4        801
    x[3]      OBJ       -636
    x[4]      c1        327
    x[4]      c2        700
    x[4]      c3        591
    x[4]      c4        22
    x[4]      OBJ       -317
    x[5]      c1        761
    x[5]      c2        323
    x[5]      c3        573
    x[5]      c4        939
    x[5]      OBJ       -577
    x[6]      c1        425
    x[6]      c2        210
    x[6]      c3        929
    x[6]      c4        754
    x[6]      OBJ       -903
    x[7]      c1        499
    x[7]      c2        255
    x[7]      c3        200
    x[7]      c4        760
    x[7]      OBJ       -80
    x[8]      c1        483
    x[8]      c2        359
    x[8]      c3        746
    x[8]      c4        65
    x[8]      OBJ       -695
    x[9]      c1        510
    x[9]      c2        175
    x[9]      c3        595
    x[9]      c4        43
    x[9]      OBJ       -171
    x[10]     c1        420
    x[10]     c2        266
    x[10]     c3        556
    x[10]     c4        925
    x[10]     OBJ       -599
    x[11]     c1        171
    x[11]     c2        278
    x[11]     c3        720
    x[11]     c4        930
    x[11]     OBJ       -626
    x[12]     c1        714
    x[12]     c2        714
    x[12]     c3        527
    x[12]     c4        288
    x[12]     OBJ       -959
    x[13]     c1        241
    x[13]     c2        919
    x[13]     c3        603
    x[13]     c4        533
    x[13]     OBJ       -609
    x[14]     c1        155
    x[14]     c2        32
    x[14]     c3        48
    x[14]     c4        660
    x[14]     OBJ       -377
    x[15]     c1        435
    x[15]     c2        581
    x[15]     c3        192
    x[15]     c4        430
    x[15]     OBJ       -722
    x[16]     c1        932
    x[16]     c2        914
    x[16]     c3        485
    x[16]     c4        948
    x[16]     OBJ       -145
    x[17]     c1        666
    x[17]     c2        286
    x[17]     c3        386
    x[17]     c4        400
    x[17]     OBJ       -816
    x[18]     c1        64
    x[18]     c2        228
    x[18]     c3        613
    x[18]     c4        187
    x[18]     OBJ       -544
    x[19]     c1        626
    x[19]     c2        556
    x[19]     c3        733
    x[19]     c4        69
    x[19]     OBJ       -957
    x[20]     c1        425
    x[20]     c2        616
    x[20]     c3        156
    x[20]     c4        676
    x[20]     OBJ       -565
    x[21]     c1        273
    x[21]     c2        977
    x[21]     c3        832
    x[21]     c4        95
    x[21]     OBJ       -651
    x[22]     c1        754
    x[22]     c2        289
    x[22]     c3        376
    x[22]     c4        988
    x[22]     OBJ       -230
    x[23]     c1        103
    x[23]     c2        511
    x[23]     c3        590
    x[23]     c4        71
    x[23]     OBJ       -888
    x[24]     c1        18
    x[24]     c2        829
    x[24]     c3        254
    x[24]     c4        564
    x[24]     OBJ       -955
    x[25]     c1        778
    x[25]     c2        923
    x[25]     c3        748
    x[25]     c4        180
    x[25]     OBJ       -862
    x[26]     c1        371
    x[26]     c2        4
    x[26]     c3        372
    x[26]     c4        351
    x[26]     OBJ       -786
    x[27]     c1        652
    x[27]     c2        327
    x[27]     c3        816
    x[27]     c4        474
    x[27]     OBJ       -306
    x[28]     c1        894
    x[28]     c2        831
    x[28]     c3        163
    x[28]     c4        858
    x[28]     OBJ       -653
    x[29]     c1        176
    x[29]     c2        194
    x[29]     c3        595
    x[29]     c4        673
    x[29]     OBJ       -319
    x[30]     c1        649
    x[30]     c2        815
    x[30]     c3        755
    x[30]     c4        635
    x[30]     OBJ       -419
    x[31]     c1        91
    x[31]     c2        82
    x[31]     c3        338
    x[31]     c4        974
    x[31]     OBJ       -19
    x[32]     c1        894
    x[32]     c2        105
    x[32]     c3        743
    x[32]     c4        959
    x[32]     OBJ       -443
    x[33]     c1        799
    x[33]     c2        112
    x[33]     c3        561
    x[33]     c4        607
    x[33]     OBJ       -787
    x[34]     c1        658
    x[34]     c2        538
    x[34]     c3        86
    x[34]     c4        989
    x[34]     OBJ       -713
    x[35]     c1        958
    x[35]     c2        924
    x[35]     c3        681
    x[35]     c4        787
    x[35]     OBJ       -700
    x[36]     c1        940
    x[36]     c2        318
    x[36]     c3        674
    x[36]     c4        547
    x[36]     OBJ       -145
    x[37]     c1        396
    x[37]     c2        163
    x[37]     c3        173
    x[37]     c4        701
    x[37]     OBJ       -809
    x[38]     c1        326
    x[38]     c2        746
    x[38]     c3        46
    x[38]     c4        829
    x[38]     OBJ       -448
    x[39]     c1        702
    x[39]     c2        322
    x[39]     c3        653
    x[39]     c4        165
    x[39]     OBJ       -433
    x[40]     c1        176
    x[40]     c2        341
    x[40]     c3        763
    x[40]     c4        187
    x[40]     OBJ       -8
    x[41]     c1        43
    x[41]     c2        600
    x[41]     c3        570
    x[41]     c4        744
    x[41]     OBJ       -176
    x[42]     c1        134
    x[42]     c2        384
    x[42]     c3        737
    x[42]     c4        103
    x[42]     OBJ       -60
    x[43]     c1        732
    x[43]     c2        899
    x[43]     c3        533
    x[43]     c4        721
    x[43]     OBJ       -623
    x[44]     c1        793
    x[44]     c2        822
    x[44]     c3        540
    x[44]     c4        297
    x[44]     OBJ       -70
    x[45]     c1        205
    x[45]     c2        75
    x[45]     c3        897
    x[45]     c4        156
    x[45]     OBJ       -723
    x[46]     c1        91
    x[46]     c2        700
    x[46]     c3        137
    x[46]     c4        470
    x[46]     OBJ       -965
    x[47]     c1        217
    x[47]     c2        719
    x[47]     c3        895
    x[47]     c4        318
    x[47]     OBJ       -585
    x[48]     c1        168
    x[48]     c2        903
    x[48]     c3        98
    x[48]     c4        206
    x[48]     OBJ       -311
    x[49]     c1        214
    x[49]     c2        838
    x[49]     c3        896
    x[49]     c4        385
    x[49]     OBJ       -161
    x[50]     c1        762
    x[50]     c2        764
    x[50]     c3        820
    x[50]     c4        732
    x[50]     OBJ       -720
RHS
    rhs       c1        12030
    rhs       c2        12140
    rhs       c3        13199
    rhs       c4        13066
RANGES
BOUNDS
 BV bounds    x[1]
 BV bounds    x[2]
 BV bounds    x[3]
 BV bounds    x[4]
 BV bounds    x[5]
 BV bounds    x[6]
 BV bounds    x[7]
 BV bounds    x[8]
 BV bounds    x[9]
 BV bounds    x[10]
 BV bounds    x[11]
 BV bounds    x[12]
 BV bounds    x[13]
 BV bounds    x[14]
 BV bounds    x[15]
 BV bounds    x[16]
 BV bounds    x[17]
 BV bounds    x[18]
 BV bounds    x[19]
 BV bounds    x[20]
 BV bounds    x[21]
 BV bounds    x[22]
 BV bounds    x[23]
 BV bounds    x[24]
 BV bounds    x[25]
 BV bounds    x[26]
 BV bounds    x[27]
 BV bounds    x[28]
 BV bounds    x[29]
 BV bounds    x[30]
 BV bounds    x[31]
 BV bounds    x[32]
 BV bounds    x[33]
 BV bounds    x[34]
 BV bounds    x[35]
 BV bounds    x[36]
 BV bounds    x[37]
 BV bounds    x[38]
 BV bounds    x[39]
 BV bounds    x[40]
 BV bounds    x[41]
 BV bounds    x[42]
 BV bounds    x[43]
 BV bounds    x[44]
 BV bounds    x[45]
 BV bounds    x[46]
 BV bounds    x[47]
 BV bounds    x[48]
 BV bounds    x[49]
 BV bounds    x[50]
ENDATA
